# Random Circle Problem
param d := 0.05; 
param n := 10; 
param radius := 2.00; 
param v0 := 
1 5.25
2 5.39
3 5.85
4 5.40
5 4.95
6 5.34
7 5.24
8 4.87
9 5.59
10 5.04
;
param cap := 
1 2.82200
2 3.80374
3 4.42916
4 5.10291
5 5.18055
6 5.94012
7 0.32619
8 1.35927
9 1.76671
10 2.90048
;
param x0 := 
1 2.00
2 1.62
3 0.62
4 -0.62
5 -1.62
6 -2.00
7 -1.62
8 -0.62
9 0.62
10 1.62
;
param y0 := 
1 -0.00
2 1.18
3 1.90
4 1.90
5 1.18
6 0.00
7 -1.18
8 -1.90
9 -1.90
10 -1.18
;
